# Objective value = 4652.53
I_0_0 1230
I_0_1 1280
I_0_2 1.7550000000000002e+03
I_0_3 1.6900000000000007e+03
I_0_4 1.4750000000000007e+03
I_0_5 1460
I_0_6 1935
I_1_0 99
I_1_1 9.8999999999999929e+01
I_1_2 6.6823134641068234e-14
I_1_3 99
I_1_4 0
I_1_5 99
I_1_6 0
I_2_0 61
I_2_1 6.0999999999999957e+01
I_2_2 4.1173850637425881e-14
I_2_3 6.0999999999999972e+01
I_2_4 2.0317081350640365e-14
I_2_5 61
I_2_6 0
I_3_0 78
I_3_1 39
I_3_2 0
I_3_3 78
I_3_4 39
I_3_5 78
I_3_6 3.8999999999999964e+01
I_4_0 126
I_4_1 126
I_4_2 63
I_4_3 0
I_4_4 126
I_4_5 63
I_4_6 0
I_5_0 160
I_5_1 1.5999999999999997e+02
I_5_2 7.9999999999999744e+01
I_5_3 -1.7053025658242404e-13
I_5_4 1.5999999999999963e+02
I_5_5 8.0000000000000156e+01
I_5_6 1.8048061016158619e-13
I_6_0 22
I_6_1 1.0999999999999995e+01
I_6_2 7.1054273576010019e-15
I_6_3 2.2000000000000011e+01
I_6_4 1.0999999999999954e+01
I_6_5 2.2000000000000004e+01
I_6_6 1.1000000000000007e+01
I_7_0 110
I_7_1 1.0999999999999997e+02
I_7_2 55
I_7_3 3.5527136788005009e-15
I_7_4 110
I_7_5 5.5000000000000014e+01
I_7_6 7.1054273576010019e-15
I_8_0 64
I_8_1 6.3999999999999929e+01
I_8_2 3.1999999999999936e+01
I_8_3 1.2733146247102650e-13
I_8_4 6.3999999999999950e+01
I_8_5 3.2000000000000092e+01
I_8_6 7.7876585950715216e-14
I_9_0 21
I_9_1 2.0999999999999975e+01
I_9_2 2.3128889309602964e-14
I_9_3 21
I_9_4 0
I_9_5 21
I_9_6 0
I_10_0 14
I_10_1 1.3999999999999996e+01
I_10_2 -1.2386280501688152e-16
I_10_3 1.3999999999999996e+01
I_10_4 -6.9882119148876409e-14
I_10_5 14
I_10_6 0
q_1_0 9.8999999999999929e+01
q_1_1 1.3787740821707824e-13
q_1_2 1.9799999999999994e+02
q_1_3 0
q_1_4 198
q_1_5 0
q_2_0 6.0999999999999957e+01
q_2_1 8.3806414783031892e-14
q_2_2 1.2199999999999993e+02
q_2_3 4.8738790781044372e-14
q_2_4 1.2199999999999997e+02
q_2_5 0
q_3_0 0
q_3_1 0
q_3_2 117
q_3_3 0
q_3_4 78
q_3_5 0
q_4_0 63
q_4_1 0
q_4_2 0
q_4_3 189
q_4_4 0
q_4_5 0
q_5_0 7.9999999999999972e+01
q_5_1 -3.4958151543692786e-13
q_5_2 8.9525629427251909e-14
q_5_3 2.3999999999999974e+02
q_5_4 6.4517831462721220e-13
q_5_5 0
q_6_0 -4.8849813083506888e-15
q_6_1 6.8559796984917957e-15
q_6_2 3.3000000000000007e+01
q_6_3 0
q_6_4 2.2000000000000021e+01
q_6_5 0
q_7_0 5.4999999999999964e+01
q_7_1 1.3058117023574851e-14
q_7_2 0
q_7_3 165
q_7_4 7.1054273576010019e-15
q_7_5 0
q_8_0 3.1999999999999929e+01
q_8_1 0
q_8_2 1.9099719370653974e-13
q_8_3 9.5999999999999815e+01
q_8_4 1.6996402661663249e-13
q_8_5 0
q_9_0 2.0999999999999975e+01
q_9_1 4.7997885061206474e-14
q_9_2 4.1999999999999972e+01
q_9_3 0
q_9_4 42
q_9_5 0
q_10_0 1.3999999999999996e+01
q_10_1 3.4288508737836194e-15
q_10_2 2.7999999999999996e+01
q_10_3 -6.6329405470075909e-14
q_10_4 2.8000000000000071e+01
q_10_5 0
y_0_0 1
y_0_1 1.1013756814096650e-15
y_0_2 1
y_0_3 1
y_0_4 1
y_0_5 0
y_1_0 9.9999999999999933e-01
y_1_1 6.7498115799058822e-16
y_1_2 1
y_1_3 0
y_1_4 1
y_1_5 0
y_2_0 9.9999999999999933e-01
y_2_1 6.7498115799058822e-16
y_2_2 9.9999999999999956e-01
y_2_3 3.3306690738754696e-16
y_2_4 1
y_2_5 0
y_3_0 0
y_3_1 0
y_3_2 1
y_3_3 0
y_3_4 1
y_3_5 0
y_4_0 1
y_4_1 0
y_4_2 0
y_4_3 1
y_4_4 0
y_4_5 0
y_5_0 9.9999999999999956e-01
y_5_1 -3.5615610220159933e-15
y_5_2 0
y_5_3 9.9999999999999778e-01
y_5_4 2.4336433109598525e-15
y_5_5 0
y_6_0 -4.4408920985006262e-16
y_6_1 6.7498115799058822e-16
y_6_2 1.0000000000000004e+00
y_6_3 0
y_6_4 9.9999999999999978e-01
y_6_5 0
y_7_0 9.9999999999999933e-01
y_7_1 -8.8473432154923258e-18
y_7_2 0
y_7_3 1
y_7_4 1.6653345369377348e-16
y_7_5 0
y_8_0 9.9999999999999778e-01
y_8_1 0
y_8_2 1.9895541011097891e-15
y_8_3 9.9999999999999822e-01
y_8_4 2.2115987060348204e-15
y_8_5 0
y_9_0 9.9999999999999889e-01
y_9_1 1.1013756814096650e-15
y_9_2 1
y_9_3 0
y_9_4 1
y_9_5 0
y_10_0 9.9999999999999978e-01
y_10_1 -8.8473432154915370e-18
y_10_2 9.9999999999999978e-01
y_10_3 -4.9915799392054583e-15
y_10_4 1
y_10_5 0
x_0_1_0 0
x_0_1_1 0
x_0_1_2 0
x_0_1_3 0
x_0_1_4 0
x_0_1_5 0
x_0_2_0 0
x_0_2_1 0
x_0_2_2 0
x_0_2_3 0
x_0_2_4 0
x_0_2_5 0
x_0_3_0 0
x_0_3_1 0
x_0_3_2 6.6613381477509392e-16
x_0_3_3 0
x_0_3_4 0
x_0_3_5 0
x_0_4_0 9.9999999999999978e-01
x_0_4_1 0
x_0_4_2 0
x_0_4_3 9.9999999999999911e-01
x_0_4_4 0
x_0_4_5 0
x_0_5_0 0
x_0_5_1 0
x_0_5_2 -8.8473432154915370e-18
x_0_5_3 -2.2204460492503131e-16
x_0_5_4 3.0997771257349476e-15
x_0_5_5 0
x_0_6_0 0
x_0_6_1 0
x_0_6_2 0
x_0_6_3 0
x_0_6_4 0
x_0_6_5 0
x_0_7_0 0
x_0_7_1 6.6613381477509392e-16
x_0_7_2 0
x_0_7_3 1.0000000000000053e+00
x_0_7_4 0
x_0_7_5 0
x_0_8_0 0
x_0_8_1 0
x_0_8_2 0
x_0_8_3 -3.7659109405100415e-15
x_0_8_4 0
x_0_8_5 0
x_0_9_0 1.0000000000000004e+00
x_0_9_1 -1.7694686430983074e-17
x_0_9_2 1
x_0_9_3 0
x_0_9_4 1
x_0_9_5 0
x_0_10_0 0
x_0_10_1 -4.4408920985006262e-16
x_0_10_2 9.9999999999999889e-01
x_0_10_3 0
x_0_10_4 9.9999999999999645e-01
x_0_10_5 0
x_1_2_0 9.9999999999999933e-01
x_1_2_1 6.7498115799058822e-16
x_1_2_2 1
x_1_2_3 -1.88295547025502e-15
x_1_2_4 1
x_1_2_5 0
x_1_3_0 0
x_1_3_1 0
x_1_3_2 0
x_1_3_3 0
x_1_3_4 0
x_1_3_5 0
x_1_4_0 0
x_1_4_1 0
x_1_4_2 0
x_1_4_3 0
x_1_4_4 0
x_1_4_5 0
x_1_5_0 0
x_1_5_1 0
x_1_5_2 0
x_1_5_3 0
x_1_5_4 0
x_1_5_5 0
x_1_6_0 -1.1102230246251565e-15
x_1_6_1 6.7498115799058822e-16
x_1_6_2 9.9999999999999867e-01
x_1_6_3 1.88295547025502e-15
x_1_6_4 9.9999999999999822e-01
x_1_6_5 0
x_1_7_0 0
x_1_7_1 0
x_1_7_2 0
x_1_7_3 0
x_1_7_4 0
x_1_7_5 0
x_1_8_0 0
x_1_8_1 0
x_1_8_2 0
x_1_8_3 0
x_1_8_4 0
x_1_8_5 0
x_1_9_0 0
x_1_9_1 0
x_1_9_2 0
x_1_9_3 0
x_1_9_4 0
x_1_9_5 0
x_1_10_0 1.0000000000000027e+00
x_1_10_1 0
x_1_10_2 1.3322676295501878e-15
x_1_10_3 0
x_1_10_4 2.2115987060348204e-15
x_1_10_5 0
x_2_3_0 0
x_2_3_1 0
x_2_3_2 9.9999999999999944e-01
x_2_3_3 0
x_2_3_4 1
x_2_3_5 0
x_2_4_0 0
x_2_4_1 0
x_2_4_2 0
x_2_4_3 0
x_2_4_4 0
x_2_4_5 0
x_2_5_0 0
x_2_5_1 0
x_2_5_2 0
x_2_5_3 0
x_2_5_4 0
x_2_5_5 0
x_2_6_0 0
x_2_6_1 0
x_2_6_2 0
x_2_6_3 2.3270446801050826e-15
x_2_6_4 0
x_2_6_5 0
x_2_7_0 0
x_2_7_1 0
x_2_7_2 0
x_2_7_3 0
x_2_7_4 0
x_2_7_5 0
x_2_8_0 0
x_2_8_1 0
x_2_8_2 0
x_2_8_3 0
x_2_8_4 0
x_2_8_5 0
x_2_9_0 9.9999999999999978e-01
x_2_9_1 3.4191425060304126e-16
x_2_9_2 0
x_2_9_3 0
x_2_9_4 0
x_2_9_5 0
x_2_10_0 0
x_2_10_1 0
x_2_10_2 0
x_2_10_3 0
x_2_10_4 0
x_2_10_5 0
x_3_4_0 0
x_3_4_1 0
x_3_4_2 0
x_3_4_3 0
x_3_4_4 0
x_3_4_5 0
x_3_5_0 0
x_3_5_1 0
x_3_5_2 0
x_3_5_3 0
x_3_5_4 0
x_3_5_5 0
x_3_6_0 0
x_3_6_1 0
x_3_6_2 0
x_3_6_3 0
x_3_6_4 0
x_3_6_5 0
x_3_7_0 0
x_3_7_1 0
x_3_7_2 0
x_3_7_3 0
x_3_7_4 0
x_3_7_5 0
x_3_8_0 0
x_3_8_1 0
x_3_8_2 0
x_3_8_3 0
x_3_8_4 0
x_3_8_5 0
x_3_9_0 0
x_3_9_1 0
x_3_9_2 1
x_3_9_3 0
x_3_9_4 1
x_3_9_5 0
x_3_10_0 0
x_3_10_1 0
x_3_10_2 0
x_3_10_3 0
x_3_10_4 0
x_3_10_5 0
x_4_5_0 1.0000000000000004e+00
x_4_5_1 0
x_4_5_2 0
x_4_5_3 1.0000000000000011e+00
x_4_5_4 0
x_4_5_5 0
x_4_6_0 0
x_4_6_1 0
x_4_6_2 0
x_4_6_3 0
x_4_6_4 0
x_4_6_5 0
x_4_7_0 0
x_4_7_1 0
x_4_7_2 0
x_4_7_3 0
x_4_7_4 0
x_4_7_5 0
x_4_8_0 0
x_4_8_1 0
x_4_8_2 0
x_4_8_3 0
x_4_8_4 0
x_4_8_5 0
x_4_9_0 0
x_4_9_1 0
x_4_9_2 0
x_4_9_3 0
x_4_9_4 0
x_4_9_5 0
x_4_10_0 0
x_4_10_1 0
x_4_10_2 0
x_4_10_3 0
x_4_10_4 0
x_4_10_5 0
x_5_6_0 0
x_5_6_1 0
x_5_6_2 0
x_5_6_3 0
x_5_6_4 0
x_5_6_5 0
x_5_7_0 0
x_5_7_1 -3.5615610220159933e-15
x_5_7_2 0
x_5_7_3 -4.8761339651352e-15
x_5_7_4 0
x_5_7_5 0
x_5_8_0 9.9999999999999956e-01
x_5_8_1 0
x_5_8_2 0
x_5_8_3 9.9999999999999778e-01
x_5_8_4 2.2115987060348204e-15
x_5_8_5 0
x_5_9_0 0
x_5_9_1 0
x_5_9_2 0
x_5_9_3 0
x_5_9_4 0
x_5_9_5 0
x_5_10_0 0
x_5_10_1 -3.5615610220159933e-15
x_5_10_2 -2.1319726170953977e-16
x_5_10_3 0
x_5_10_4 0
x_5_10_5 0
x_6_7_0 0
x_6_7_1 0
x_6_7_2 0
x_6_7_3 0
x_6_7_4 0
x_6_7_5 0
x_6_8_0 4.4408920985006262e-16
x_6_8_1 0
x_6_8_2 4.4231974120696407e-15
x_6_8_3 -2.8777325208099155e-15
x_6_8_4 1.9895541011097891e-15
x_6_8_5 0
x_6_9_0 0
x_6_9_1 0
x_6_9_2 0
x_6_9_3 0
x_6_9_4 0
x_6_9_5 0
x_6_10_0 0
x_6_10_1 2.3089194814052561e-16
x_6_10_2 1
x_6_10_3 0
x_6_10_4 9.9999999999999978e-01
x_6_10_5 0
x_7_8_0 9.9999999999999911e-01
x_7_8_1 0
x_7_8_2 0
x_7_8_3 1.0000000000000047e+00
x_7_8_4 -1.1102230246251565e-16
x_7_8_5 0
x_7_9_0 0
x_7_9_1 0
x_7_9_2 0
x_7_9_3 0
x_7_9_4 0
x_7_9_5 0
x_7_10_0 9.9999999999999956e-01
x_7_10_1 2.1319726170953898e-16
x_7_10_2 0
x_7_10_3 -5.0981785700602270e-15
x_7_10_4 5.5511151231257827e-16
x_7_10_5 0
x_8_9_0 0
x_8_9_1 0
x_8_9_2 0
x_8_9_3 0
x_8_9_4 0
x_8_9_5 0
x_8_10_0 0
x_8_10_1 0
x_8_10_2 0
x_8_10_3 0
x_8_10_4 0
x_8_10_5 0
x_9_10_0 -1.7586621529692650e-15
x_9_10_1 1.8785317986472722e-15
x_9_10_2 0
x_9_10_3 0
x_9_10_4 0
x_9_10_5 0
